NAME          PROBLEM
ROWS
 N  OBJ
 L  C1
 L  C2
COLUMNS
 Y1     OBJ      0
 Y1     C1       1
 Y1     C2      -1
 Y2     OBJ     -1
 Y2     C1      100.0
 Y2     C2      100.0
RHS
 RHS1   C1       1
 RHS1   C2       1
BOUNDS
 LO BND Y1      -1
 UP BND Y1       1
 LO BND Y2      -1
 UP BND Y2      0.0099
ENDATA